# ---------- 1. Initialize simulation ---------------------
# real units for the kcal/mole units
units real
atom_style full
dimension  3
boundary   p p p
read_data $DATAINPUT

# ---------- 2. Specify interatomic potential ---------------------
# force field implementation inspired by
# https://github.com/lammps/lammps/blob/master/examples/USER/fep/CH4hyd/fep01/in.fep01.lmp
# and
# https://gitlab.mpcdf.mpg.de/nomad-lab/parser-lammps/blob/
# 8c5b2deefc6496724fc967c515debf2dd896bc55/test/examples/methane/
# input.methane_nvt_thermo_style_one

bond_style harmonic
angle_style harmonic

# OPLS considers 1-4 interactions with 50%
special_bonds lj/coul 0.0 0.0 0.5

# force fields we're using - long-range tip4p and lj/coulomb
pair_style lj/cut/tip4p/long 3 2 1 1 0.125 9.5 8.5

# don't want a tail correction, inhomogeneous system; geometric mixing rules
pair_modify tail no shift yes mix geometric

# need to do the long-range coulomb interactions in k-space
kspace_style pppm/tip4p 1.0e-4

# force field parameters
pair_coeff 1 1 0.066 3.5 # C from CH4
pair_coeff 4 4 0.03 2.5 # H from CH4
pair_coeff 3 3 0.16275 3.16435 # O from H2O
pair_coeff 2 2 0.0 0.0 # H from H2O
pair_coeff 1 3 0.255 3.032    # C from CH4, O from H2O

bond_coeff 1 0.0 0.9572
bond_coeff 2 340.0 1.09

angle_coeff 1 0.0 104.52
angle_coeff 2 33.0 107.8

$FFINPUT

# our target pressure - 6 MPa
variable p equal 59.2154 # 6 MPa in atmospheres - units real



dump min all atom 100 $RUNPATH/dump.atom # dump info so we can see it was ok


fix 1 all box/relax aniso $p vmax 1e-4

thermo 10 
thermo_style custom step tpcpu temp etotal pe press vol fmax fnorm
min_style sd
min_modify line quadratic
minimize 1e-3 1e-5 2000 10000

unfix 1
fix 2 all box/relax aniso $p vmax 1e-4

thermo 10 
thermo_style custom step tpcpu temp etotal pe press vol fmax fnorm
min_style sd
min_modify line quadratic
minimize 1e-3 1e-5 2000 10000

unfix 2
fix 3 all box/relax aniso $p vmax 1e-4

thermo 10 
thermo_style custom step tpcpu temp etotal pe press vol fmax fnorm
min_style sd
min_modify line quadratic
minimize 1e-3 1e-5 2000 10000


# write a restart
write_restart $RUNPATH/restart_min.equil
